(declare-const |param0':148| Int)
(declare-const havoc Int)
(declare-const |return':147| Int)
(assert (and (= (+ |param0':148| (- |return':147|) -10) 0)
               (<= (+ havoc (- |return':147|) -10) 0)
               (<= (+ (- |return':147|) 91) 0)
               (not (= (+ |return':147| -91) 0))
               (or (<= (+ havoc -101) 0)
                     (and (< (+ (- havoc) 101) 0)
                            (not (= (+ (- havoc) |return':147| 10) 0))))))
(check-sat)
